NAME : mEgtspf.pid9871.gtsp.241592049.tour
COMMENT : Length = 241592049
COMMENT : Found by LKH [Keld Helsgaun] Wed Mar 19 20:38:46 2025
TYPE : TOUR
DIMENSION : 135
TOUR_SECTION
1
68
69
70
71
103
100
101
102
72
73
74
75
11
120
121
122
123
127
124
125
126
10
94
95
92
93
9
17
18
19
16
104
105
106
107
67
64
65
66
8
58
59
56
57
135
132
133
134
5
49
50
51
48
86
87
84
85
62
63
60
61
14
116
117
118
119
7
128
129
130
131
43
40
41
42
90
91
88
89
29
30
31
28
13
27
24
25
26
32
33
34
35
109
110
111
108
44
45
46
47
12
55
52
53
54
96
97
98
99
3
23
20
21
22
15
2
37
38
39
36
81
82
83
80
77
78
79
76
6
112
113
114
115
4
-1
EOF
